ITEM = _(1..70);
knapsack_n = 3;
capacities = [397, 403, 404];
profits = [275, 115, 78, 348, 606, 29, 72, 256, 40, 85, 304, 16, 19, 87, 35, 597, 85, 464, 401, 162, 35, 99, 34, 22, 435, 25, 35, 165, 12, 8, 145, 601, 9, 401, 116, 191, 152, 617, 58, 40, 40, 153, 103, 12, 66, 16, 21, 616, 609, 302, 14, 450, 146, 91, 139, 485, 158, 40, 29, 12, 331, 508, 24, 123, 550, 505, 38, 144, 67, 54];
weights = [48, 13, 26, 66, 84, 10, 28, 44, 9, 17, 48, 10, 7, 18, 5, 61, 16, 59, 90, 23, 6, 34, 7, 3, 45, 12, 12, 31, 6, 9, 13, 86, 9, 70, 35, 56, 25, 69, 27, 7, 3, 35, 17, 7, 33, 12, 7, 64, 71, 48, 3, 88, 34, 34, 26, 49, 22, 10, 10, 7, 47, 87, 9, 14, 85, 40, 8, 28, 32, 21];
